47129
1 0 1 1 1 0 0 1 1 0 1 0 0 0 0 0 0 0 0 1 0 0 1 0 0 1 0 0 0 0 
7 19 2 22 2 25 2 22 22 22 4 3 10 3 3 7 8 10 22 22 7 3 2 0 10 22 22 19 3 2 19 19 4 22 22 3 8 8 0 22 7 3 3 4 8 19 3 2 19 10 22 22 0 2 8 22 25 8 7 25 4 0 7 8 8 3 0 19 19 25 7 25 19 8 10 10 10 10 8 22 10 3 8 25 4 10 3 2 22 25 22 19 25 25 0 8 22 19 0 3 19 22 25 7 4 0 4 2 22 3 19 4 7 3 22 8 7 25 3 8 4 3 22 19 3 22 2 7 19 0 7 2 25 10 8 8 3 8 3 8 7 22 22 25 25 3 2 2 7 25 0 0 3 0 8 7 2 22 3 3 3 22 10 0 3 7 3 4 8 3 8 8 19 8 4 0 0 10 4 10 2 22 0 3 25 8 7 10 0 2 2 3 19 3 7 7 7 3 10 19 